2 4 75
1 2 71
1 3 151
3 4 140 
3 5 99 
3 6 80
4 7 118 
7 8 111
8 9 70
9 10 75
10 11 120
11 12 138 
11 6 148
6 12 97
12 13 101
5 13 211  
13 14 90 
13 15 85 
15 16 98 
15 17 142
17 18 92
18 19 87 
20 16 86